RT is False
Default write of storage_offers_DA.csv just to have a file (but constraint should be inactive)
Reading model...
...model read.
creating competitive generators file...
...competitive generators recorded.
Loading data...
.. day-ahead data with real-time VRE data read.
Compiling instance...
...instance created.
Creating Offer Mitigation (model will solve as dispatch if TRUE)...
NOTE: storage offers will not be mitigated
...storage offer mitigation file created
Converting model to MPEC...
...converted
NOTE: initial MIP solve with only storage competitive to get feasible solution
Solving...

Welcome to IBM(R) ILOG(R) CPLEX(R) Interactive Optimizer 12.9.0.0
  with Simplex, Mixed Integer & Barrier Optimizers
5725-A06 5725-A29 5724-Y48 5724-Y49 5724-Y54 5724-Y55 5655-Y21
Copyright IBM Corp. 1988, 2019.  All Rights Reserved.

Type 'help' for a list of available commands.
Type 'help' followed by a command name for more
information on commands.

CPLEX> Logfile 'cplex.log' closed.
Logfile 'C:\Users\llavin\Desktop\test826\logs\tmp3lcrrkil.cplex.log' open.
CPLEX> New value for parallel optimization mode: -1
CPLEX> New value for emphasis for MIP optimization: 1
CPLEX> New value for mixed integer optimality gap tolerance: 0.01
CPLEX> New value for integrality tolerance: 1e-12
CPLEX> New value for deterministic time limit in ticks: 75000
CPLEX> Problem 'C:\Users\llavin\Desktop\test826\logs\tmpchkpi6ea.pyomo.lp' read.
Read time = 0.23 sec. (13.92 ticks)
CPLEX> Problem name         : C:\Users\llavin\Desktop\test826\logs\tmpchkpi6ea.pyomo.lp
Objective sense      : Maximize
Variables            :   53809  [Nneg: 1,  Box: 22004,  Free: 4464,
                                 Binary: 27340]
Objective nonzeros   :    9029
Linear constraints   :  123253  [Less: 41346,  Greater: 59096,  Equal: 22811]
  Nonzeros           :  293217
  RHS nonzeros       :   67491

Variables            : Min LB: -5000.000        Max UB: 1000000.       
Objective nonzeros   : Min   : 0.7833333        Max   : 2500.000       
Linear constraints   :
  Nonzeros           : Min   : 0.7833333        Max   : 1000000.       
  RHS nonzeros       : Min   : 0.7833333        Max   : 1000000.       
CPLEX> CPXPARAM_Parallel                                -1
CPXPARAM_Emphasis_MIP                            1
CPXPARAM_DetTimeLimit                            75000
CPXPARAM_MIP_Tolerances_MIPGap                   0.01
CPXPARAM_MIP_Tolerances_Integrality              9.9999999999999998e-13
Tried aggregator 4 times.
MIP Presolve eliminated 88717 rows and 19020 columns.
MIP Presolve added 3378 rows and 0 columns.
MIP Presolve modified 24757 coefficients.
Aggregator did 12972 substitutions.
Reduced MIP has 24942 rows, 21261 columns, and 71751 nonzeros.
Reduced MIP has 8402 binaries, 0 generals, 0 SOSs, and 0 indicators.
Presolve time = 0.31 sec. (194.96 ticks)
Probing fixed 400 vars, tightened 4529 bounds.
Probing time = 0.08 sec. (19.07 ticks)
Tried aggregator 2 times.
MIP Presolve eliminated 905 rows and 800 columns.
MIP Presolve modified 3034 coefficients.
Aggregator did 40 substitutions.
Reduced MIP has 23997 rows, 20421 columns, and 69021 nonzeros.
Reduced MIP has 8002 binaries, 0 generals, 0 SOSs, and 0 indicators.
Presolve time = 0.09 sec. (87.46 ticks)
Probing fixed 0 vars, tightened 247 bounds.
Probing time = 0.14 sec. (22.49 ticks)
Clique table members: 43691.
MIP emphasis: integer feasibility.
MIP search method: dynamic search.
Parallel mode: opportunistic, using up to 32 threads.
Root relaxation solution time = 0.49 sec. (706.81 ticks)

        Nodes                                         Cuts/
   Node  Left     Objective  IInf  Best Integer    Best Bound    ItCnt     Gap

      0     0     4290.0896   242                   4290.0896     6183         
      0     0     4290.0896    13                    Cuts: 38     6196         
      0     0     4290.0896    15                     Cuts: 6     6202         
      0     0     4290.0896    18                     Cuts: 6     6207         
*     0+    0                         4261.6192     4290.0896             0.67%

Cover cuts applied:  2
Flow cuts applied:  28
Gomory fractional cuts applied:  10
Warning: integer solution contains unscaled infeasibilities.

Root node processing (before b&c):
  Real time             =    2.63 sec. (2115.79 ticks)
Parallel b&c, 32 threads:
  Real time             =    0.00 sec. (0.00 ticks)
  Sync time (average)   =    0.00 sec.
  Wait time (average)   =    0.00 sec.
                          ------------
Total (root+branch&cut) =    2.63 sec. (2115.79 ticks)

Solution pool: 1 solution saved.

Maximum unscaled integer infeasibility = 1.24997e-10.
MIP - Integer optimal, tolerance (0.01/1e-06):  Objective =  4.2616191858e+03
Current MIP best bound =  4.2900895683e+03 (gap = 28.4704, 0.67%)
Solution time =    2.64 sec.  Iterations = 6207  Nodes = 0 (1)
Deterministic time = 2115.95 ticks  (801.50 ticks/sec)

CPLEX> Incumbent solution written to file 'C:\Users\llavin\Desktop\test826\logs\tmp3cs5044d.cplex.sol'.
CPLEX> NOTE: no warmstart specified for MIP iteration, default behavior is true
NOTE: resolving with all competitive generators using storage-only solution to warmstart
Solving...

Welcome to IBM(R) ILOG(R) CPLEX(R) Interactive Optimizer 12.9.0.0
  with Simplex, Mixed Integer & Barrier Optimizers
5725-A06 5725-A29 5724-Y48 5724-Y49 5724-Y54 5724-Y55 5655-Y21
Copyright IBM Corp. 1988, 2019.  All Rights Reserved.

Type 'help' for a list of available commands.
Type 'help' followed by a command name for more
information on commands.

CPLEX> Logfile 'cplex.log' closed.
Logfile 'C:\Users\llavin\Desktop\test826\logs\tmpl4abdlkw.cplex.log' open.
CPLEX> New value for parallel optimization mode: -1
CPLEX> New value for emphasis for MIP optimization: 1
CPLEX> New value for mixed integer optimality gap tolerance: 0.01
CPLEX> New value for integrality tolerance: 1e-12
CPLEX> New value for deterministic time limit in ticks: 75000
CPLEX> Problem 'C:\Users\llavin\Desktop\test826\logs\tmpugtpic7g.pyomo.lp' read.
Read time = 0.24 sec. (13.94 ticks)
CPLEX> MIP start file 'C:\Users\llavin\Desktop\test826\logs\tmpghsf6r1t.cplex.mst' read.
CPLEX> Problem name         : C:\Users\llavin\Desktop\test826\logs\tmpugtpic7g.pyomo.lp
Objective sense      : Maximize
Variables            :   54529  [Nneg: 1,  Box: 22724,  Free: 4464,
                                 Binary: 27340]
Objective nonzeros   :    9725
Linear constraints   :  123253  [Less: 41346,  Greater: 59096,  Equal: 22811]
  Nonzeros           :  293217
  RHS nonzeros       :   67491

Variables            : Min LB: -5000.000        Max UB: 1000000.       
Objective nonzeros   : Min   : 0.7833333        Max   : 2500.000       
Linear constraints   :
  Nonzeros           : Min   : 0.7833333        Max   : 1000000.       
  RHS nonzeros       : Min   : 0.7833333        Max   : 1000000.       
CPLEX> CPXPARAM_Parallel                                -1
CPXPARAM_Emphasis_MIP                            1
CPXPARAM_DetTimeLimit                            75000
CPXPARAM_MIP_Tolerances_MIPGap                   0.01
CPXPARAM_MIP_Tolerances_Integrality              9.9999999999999998e-13
Warning:  No solution found from 1 MIP starts.
Retaining values of one MIP start for possible repair.
Tried aggregator 4 times.
MIP Presolve eliminated 88717 rows and 19740 columns.
MIP Presolve added 3378 rows and 0 columns.
MIP Presolve modified 24757 coefficients.
Aggregator did 12972 substitutions.
Reduced MIP has 24942 rows, 21261 columns, and 71751 nonzeros.
Reduced MIP has 8402 binaries, 0 generals, 0 SOSs, and 0 indicators.
Presolve time = 0.31 sec. (195.38 ticks)
Probing fixed 400 vars, tightened 4529 bounds.
Probing time = 0.08 sec. (19.07 ticks)
Tried aggregator 2 times.
MIP Presolve eliminated 905 rows and 800 columns.
MIP Presolve modified 3034 coefficients.
Aggregator did 40 substitutions.
Reduced MIP has 23997 rows, 20421 columns, and 69021 nonzeros.
Reduced MIP has 8002 binaries, 0 generals, 0 SOSs, and 0 indicators.
Presolve time = 0.11 sec. (87.46 ticks)
Probing fixed 0 vars, tightened 247 bounds.
Probing time = 0.14 sec. (22.49 ticks)
Clique table members: 43691.
MIP emphasis: integer feasibility.
MIP search method: dynamic search.
Parallel mode: opportunistic, using up to 32 threads.
Root relaxation solution time = 0.52 sec. (754.73 ticks)

        Nodes                                         Cuts/
   Node  Left     Objective  IInf  Best Integer    Best Bound    ItCnt     Gap

      0     0    43084.9748   244                  43084.9748     6435         
      0     0    42965.7203    69                    Cuts: 84     6509         
      0     0    42868.9364    81                    Cuts: 56     6565         
      0     0    42777.2683    78                    Cuts: 46     6615         
Repair heuristic found nothing.
      0    18    42415.7173    55                    Cuts: 17     6835         
Elapsed time = 4.22 sec. (1994.99 ticks, tree = 0.02 MB, solutions = 0)
    712   426    41391.6886    29                  42413.5083    11855         
   1242   889    40118.9451    11                  42413.5083    15778         
   1849  1237    infeasible                        42413.5083    21890         
   2379  1953    41075.7778    44                  42413.5083    35369         
   2970  2242    41389.6156    37                  42413.5083    39228         
*  3146+  785                        40134.6917    42413.5083             5.68%
   3953   646    41521.4141    49    40134.6917    42337.5855    50015    5.49%
   4886  1539        cutoff          40134.6917    42337.5855    59037    5.49%
   5824  1582        cutoff          40134.6917    42337.5855    59539    5.49%
   9001  3120    40293.9405    42    40134.6917    42337.5855    69376    5.49%
Elapsed time = 18.36 sec. (4928.71 ticks, tree = 20.90 MB, solutions = 4)
   9038  4460    infeasible          40134.6917    42218.4875    86560    5.19%
  10892   676    40690.4666    38    40134.6917    42164.0493    96421    5.06%
  15630  1994    40692.3150    32    40134.6917    41856.8088   114235    4.29%
  21120  4268    40512.8519    25    40227.7968    41563.7615   136733    3.32%
  24232  7269    40657.7739    42    40227.7968    41549.7421   164683    3.29%
  25257  8372    40420.6235    39    40227.7968    41549.7421   176990    3.29%
  30392  8583    40542.6611    38    40227.7968    41549.7421   179730    3.29%
  35827 10096    41038.0412    43    40227.7968    41549.7421   199014    3.29%
  41132 13615        cutoff          40227.7968    41295.7402   235173    2.65%
  46519 13315    40752.6110    18    40227.7968    41295.7402   231297    2.65%
Elapsed time = 65.23 sec. (15589.39 ticks, tree = 83.64 MB, solutions = 5)
  51244 15973    40495.0087    41    40227.7968    41252.7390   262599    2.55%
  55945 19909    infeasible          40227.7968    41252.7390   299930    2.55%
  59607 21667    40508.0440    49    40227.7968    41216.5660   319934    2.46%
  62271 26902    40410.6246    36    40227.7968    41216.5660   359468    2.46%
  65497 25543    40766.2722    41    40227.7968    41216.5660   350769    2.46%
  69443 28568    40232.0150    36    40227.7968    41216.5660   375365    2.46%
  73326 34496    infeasible          40227.7968    41216.5660   436021    2.46%
  77133 36611    40669.1168    40    40227.7968    41216.5660   453833    2.46%
  81184 36224        cutoff          40227.7968    41216.5660   450412    2.46%
  85363 39782    40324.3729    34    40227.7968    41204.9939   480088    2.43%
Elapsed time = 104.95 sec. (25129.58 ticks, tree = 260.29 MB, solutions = 5)
  89576 40037    40498.4435    41    40227.7968    41204.9939   482625    2.43%
  92174 41106    40494.5528    36    40227.7968    41204.9939   489836    2.43%
  94985 43410    40277.5130    36    40227.7968    41204.9939   503787    2.43%
  97947 46575    40613.3575    33    40227.7968    41204.9939   520650    2.43%
  99608 46585    40435.0729    38    40227.7968    41204.9939   520680    2.43%
  99641 55121        cutoff          40227.7968    40787.0321   569535    1.39%
 102029  1175    40272.2160    35    40227.7968    40787.0321   592692    1.39%
 104717  2395    40269.0483    47    40227.7968    40787.0321   608279    1.39%

GUB cover cuts applied:  1
Clique cuts applied:  3
Cover cuts applied:  4
Implied bound cuts applied:  4
Flow cuts applied:  50
Mixed integer rounding cuts applied:  12
Lift and project cuts applied:  17
Gomory fractional cuts applied:  17

Root node processing (before b&c):
  Real time             =    2.80 sec. (1959.47 ticks)
Parallel b&c, 32 threads:
  Real time             =  122.44 sec. (32623.81 ticks)
  Sync time (average)   =    3.59 sec.
  Wait time (average)   =    0.36 sec.
                          ------------
Total (root+branch&cut) =  125.23 sec. (34583.28 ticks)

Solution pool: 5 solutions saved.

MIP - Integer optimal, tolerance (0.01/1e-06):  Objective =  4.0227796761e+04
Current MIP best bound =  4.0630070311e+04 (gap = 402.274, 1.00%)
Solution time =  125.28 sec.  Iterations = 630091  Nodes = 106622 (3703)
Deterministic time = 34583.44 ticks  (276.05 ticks/sec)

CPLEX> Incumbent solution written to file 'C:\Users\llavin\Desktop\test826\logs\tmpic_tvawz.cplex.sol'.
CPLEX> Exporting results... 
